NAME: tsp50_15
COMMENT: 50-tsp problem (Padberg/Rinaldi)
TYPE: TSP
DIMENSION: 50
EDGE_WEIGHT_TYPE : EUC_2D
NODE_COORD_SECTION
1 29 3
2 40 24
3 36 31
4 11 40
5 32 8
6 31 9
7 6 34
8 25 39
9 10 1
10 5 0
11 15 40
12 38 30
13 32 27
14 6 32
15 6 20
16 19 16
17 14 12
18 33 33
19 11 31
20 23 33
21 37 6
22 12 13
23 0 8
24 11 39
25 1 8
26 39 1
27 0 24
28 18 14
29 37 29
30 1 38
31 24 25
32 8 29
33 36 38
34 0 24
35 9 30
36 10 24
37 31 8
38 10 15
39 11 32
40 30 16
41 14 2
42 31 7
43 33 37
44 39 6
45 34 4
46 37 27
47 10 22
48 37 36
49 33 33
50 7 6
